27 6
15 9 17 12 13 9
1 0 0 0 0 0 0 3 2 3 4
2 0 0 0 10 10 0 4 5 6 7 8
6 9 0 5 10 8 0 4 27 6 7 8
3 4 0 5 5 1 0 4 5 6 7 8
1 0 2 4 3 0 5 4 9 10 11 12
1 8 3 9 8 0 0 4 9 10 11 12
1 2 0 9 0 7 0 4 9 10 11 12
10 0 3 0 0 1 0 4 9 10 11 12
1 8 0 8 0 1 0 3 14 15 16
2 3 0 3 3 0 0 3 13 14 15
1 9 2 0 9 0 0 3 14 15 16
5 0 2 0 0 10 0 4 13 14 15 16
4 9 2 5 3 0 6 3 17 19 20
2 1 0 8 0 0 5 4 17 18 19 20
2 0 9 5 1 0 9 4 17 18 19 20
9 9 0 2 0 10 0 4 17 18 19 20
5 9 0 2 0 8 0 4 21 22 23 24
6 0 0 0 0 0 0 4 21 22 23 24
1 8 6 5 0 5 2 4 21 22 23 24
10 2 6 4 10 0 0 4 21 22 23 24
5 0 0 0 0 8 0 1 26
1 0 1 10 0 0 0 1 26
5 2 2 0 0 0 0 2 25 26
1 5 5 4 0 3 0 2 25 26
9 0 0 7 4 8 0 1 27
2 0 7 7 4 0 2 1 27
0 0 0 0 0 0 0 0
